mixintcount/benchmarks/random_v2l/5_5_8912.smt2
(set-logic QF_LIA)
(set-info :ran/ran2.smt2)
(set-info :smt-lib-version 2.0)
(declare-fun x1 () Int)
(declare-fun x2 () Int)
(declare-fun x3 () Int)
(declare-fun x4 () Int)
(declare-fun x5 () Int)
(assert (<= (+ (* (- 10) x1) (* 3 x2) (* (- 10) x3) (* 7 x4) (* 5 x5) ) 7044))
(assert (<= (+ (* 7 x1) (* 8 x2) (* (- 9) x3) (* (- 8) x4) (* (- 7) x5) ) 3211))
(assert (<= (+ (* 6 x1) (* 7 x2) (* 10 x3) (* 4 x4) (* (- 9) x5) ) 8564))
(assert (<= (+ (* 6 x1) (* 2 x2) (* 5 x3) (* (- 7) x4) (* (- 10) x5) ) 1701))
(assert (<= (+ (* 2 x1) (* (- 2) x2) (* 5 x3) (* 5 x4) (* (- 8) x5) ) 3290))
(assert (<= (+ (* (- 7) x1) (* (- 8) x2) (* (- 1) x3) (* (- 8) x4) (* 8 x5) ) 6798))
(assert (<= (+ (* 1 x1) (* 4 x2) (* 10 x3) (* 0 x4) (* 6 x5) ) (- 5248)))
(assert (<= (+ (* 8 x1) (* 2 x2) (* 7 x3) (* 5 x4) (* (- 7) x5) ) (- 957)))
(assert (<= (+ (* (- 7) x1) (* 9 x2) (* (- 4) x3) (* 8 x4) (* 10 x5) ) 5901))
(assert (<= (+ (* (- 5) x1) (* (- 1) x2) (* 3 x3) (* 8 x4) (* (- 7) x5) ) (- 6073)))
(assert (<= (+ (* 1 x1) (* 0 x2) (* 0 x3) (* 0 x4) (* 0 x5) ) 8912))
(assert (<= (+ (* (- 1) x1) (* 0 x2) (* 0 x3) (* 0 x4) (* 0 x5) ) 8912))
(assert (<= (+ (* 0 x1) (* 1 x2) (* 0 x3) (* 0 x4) (* 0 x5) ) 8912))
(assert (<= (+ (* 0 x1) (* (- 1) x2) (* 0 x3) (* 0 x4) (* 0 x5) ) 8912))
(assert (<= (+ (* 0 x1) (* 0 x2) (* 1 x3) (* 0 x4) (* 0 x5) ) 8912))
(assert (<= (+ (* 0 x1) (* 0 x2) (* (- 1) x3) (* 0 x4) (* 0 x5) ) 8912))
(assert (<= (+ (* 0 x1) (* 0 x2) (* 0 x3) (* 1 x4) (* 0 x5) ) 8912))
(assert (<= (+ (* 0 x1) (* 0 x2) (* 0 x3) (* (- 1) x4) (* 0 x5) ) 8912))
(assert (<= (+ (* 0 x1) (* 0 x2) (* 0 x3) (* 0 x4) (* 1 x5) ) 8912))
(assert (<= (+ (* 0 x1) (* 0 x2) (* 0 x3) (* 0 x4) (* (- 1) x5) ) 8912))
