mixintcount/benchmarks/random_v2l/5_5_8912.in
20 7
#	x1	x2	x3	x4	x5;		0 = Real; 1 = Integer
	1	1	1	1	1
1	-10	3	-10	7	5	7044
1	7	8	-9	-8	-7	3211
1	6	7	10	4	-9	8564
1	6	2	5	-7	-10	1701
1	2	-2	5	5	-8	3290
1	-7	-8	-1	-8	8	6798
1	1	4	10	0	6	-5248
1	8	2	7	5	-7	-957
1	-7	9	-4	8	10	5901
1	-5	-1	3	8	-7	-6073
1	1	0	0	0	0	8912
1	-1	0	0	0	0	8912
1	0	1	0	0	0	8912
1	0	-1	0	0	0	8912
1	0	0	1	0	0	8912
1	0	0	-1	0	0	8912
1	0	0	0	1	0	8912
1	0	0	0	-1	0	8912
1	0	0	0	0	1	8912
1	0	0	0	0	-1	8912
